&CONTROL
  calculation='bands'
  restart_mode='from_scratch',
  prefix='Si',
  pseudo_dir = '/u/51/gutierm2/unix/Software/YAIV/Tutorial/data/pseudos',
  outdir='/u/51/gutierm2/unix/Software/YAIV/Tutorial/data/qe/tmp',
  verbosity='high'
 /
&SYSTEM
  noncolin=.true.
  lspinorb=.true.
  ibrav=0,
  nat=2,
  ntyp=1,
  ecutwfc=10,
  ecutrho=20,
  occupations='smearing',
  smearing='mp',
  degauss=0.02,
 /
&ELECTRONS
  conv_thr =  1d-5
  mixing_beta = 0.7
 /
ATOMIC_SPECIES
Si  28.0855   Si.pbe-n-kjpaw_psl.1.0.0.UPF
ATOMIC_POSITIONS {crystal}
Si    0.000000000    0.000000000   -0.000000000
Si    0.250000000    0.250000000    0.250000000
K_POINTS { crystal_b }
 9
0.50000 0.00000 0.50000    20  ! X
0.50000 0.25000 0.75000    20  ! W
0.50000 0.50000 0.50000    20  ! L
0.00000 0.00000 0.00000    20  ! Gamma
0.50000 0.00000 0.50000    1   ! X
0.50000 0.50000 1.00000    20  ! X_1
0.37500 0.37500 0.75000    20  ! K
0.12500 0.12500 0.25000    20  ! U
0.00000 0.00000 0.00000    1   ! Gamma
CELL_PARAMETERS {angstrom}
   0.000000000    2.734363998    2.734363998
   2.734363998    0.000000000    2.734363998
   2.734363998    2.734363998    0.000000000
