&INPUT
  fildyn='../results_ph/Si.dyn',
  zasr='crystal',
  flfrc='Si.fc'
 /
