&CONTROL
  calculation='scf'
  restart_mode='from_scratch',
  prefix='Si',
  pseudo_dir = '/u/51/gutierm2/unix/Software/YAIV/Tutorial/data/pseudos',
  outdir='/u/51/gutierm2/unix/Software/YAIV/Tutorial/data/qe/tmp',
  verbosity='high'
  tstress = .true.
  tprnfor = .true.
 /
&SYSTEM
  noncolin=.true.
  lspinorb=.true.
  ibrav=0,
  nat=2,
  ntyp=1,
  ecutwfc=10,
  ecutrho=20,
  occupations='smearing',
  smearing='mp',
  degauss=0.02,
 /
&ELECTRONS
  conv_thr =  1d-5
  mixing_beta = 0.7
 /
ATOMIC_SPECIES
Si  28.0855   Si.pbe-n-kjpaw_psl.1.0.0.UPF
ATOMIC_POSITIONS {crystal}
Si    0.000000000    0.000000000   -0.000000000
Si    0.250000000    0.250000000    0.250000000
K_POINTS {automatic}
  2 2 2  0 0 0
CELL_PARAMETERS {angstrom}
   0.000000000    2.734363998    2.734363998
   2.734363998    0.000000000    2.734363998
   2.734363998    2.734363998    0.000000000
